 H  O 
 1.0000000000000000
     8.0000000000000000    0.0000000000000000    0.0000000000000000
     0.0000000000000000    8.0000000000000000    0.0000000000000000
     0.0000000000000000    0.0000000000000000    8.0000000000000000
   2   1
Cartesian
  4.2980406000000002  3.2322932000000000  4.0000000000000000
  4.2980406000000002  4.7677068000000000  4.0000000000000000
  3.7019593999999998  4.0000000000000000  4.0000000000000000
