 C  O 
 1.0000000000000000
    10.0000000000000000    0.0000000000000000    0.0000000000000000
     0.0000000000000000   10.0000000000000000    0.0000000000000000
     0.0000000000000000    0.0000000000000000   10.0000000000000000
   1   1
Cartesian
  4.4220000000000006  5.0000000000000000  5.0000000000000000
  5.5779999999999994  5.0000000000000000  5.0000000000000000
