 H  C Cl                                
   1.00000000000000     
     8.0000000000000000    0.0000000000000000    0.0000000000000000
     0.0000000000000000    8.0000000000000000    0.0000000000000000
     0.0000000000000000    0.0000000000000000    8.0000000000000000
   H    C    Cl
     1     1     3
Direct
  0.5000000000000000  0.4474342578241940  0.6023580491007198
  0.5000000000000000  0.4474776203050793  0.4653772812421257
  0.5000000000000000  0.6582044152933120  0.3983484295012216
  0.6827369153239236  0.3420572595387047  0.3984366513279699
  0.3172630846760764  0.3420572595387047  0.3984366513279699
 
  0.00000000E+00  0.00000000E+00  0.00000000E+00
  0.00000000E+00  0.00000000E+00  0.00000000E+00
  0.00000000E+00  0.00000000E+00  0.00000000E+00
  0.00000000E+00  0.00000000E+00  0.00000000E+00
  0.00000000E+00  0.00000000E+00  0.00000000E+00
