 H  C Cl 
 1.0000000000000000
     8.0000000000000000    0.0000000000000000    0.0000000000000000
     0.0000000000000000    8.0000000000000000    0.0000000000000000
     0.0000000000000000    0.0000000000000000    8.0000000000000000
   1   1   3
Cartesian
  4.0000000000000000  3.5795694999999998  4.8104364999999998
  4.0000000000000000  3.5795694999999998  3.7245295000000000
  4.0000000000000000  5.2612924999999997  3.1895635000000002
  5.4564149999999998  2.7387074999999999  3.1895635000000002
  2.5435850000000002  2.7387074999999999  3.1895635000000002
